c This file is generated by v2cnfMtr
c Generated on Wed Sep 23 22:09:21 2015
p cnf 945 2544
-1 -2 -3 -4 -91 0
1 91 0
2 91 0
3 91 0
4 91 0
-1 -5 -3 -4 -92 0
1 92 0
5 92 0
3 92 0
4 92 0
-6 -7 -8 93 0
6 -93 0
7 -93 0
8 -93 0
-1 -5 -9 94 0
1 -94 0
5 -94 0
9 -94 0
-1 -2 -9 -4 -95 0
1 95 0
2 95 0
9 95 0
4 95 0
-1 -2 -3 -10 -96 0
1 96 0
2 96 0
3 96 0
10 96 0
-11 -8 -12 -13 -97 0
11 97 0
8 97 0
12 97 0
13 97 0
-6 -12 -98 0
6 98 0
12 98 0
-11 -12 -15 -99 0
11 99 0
12 99 0
15 99 0
-6 -16 -17 100 0
6 -100 0
16 -100 0
17 -100 0
-6 -16 -8 101 0
6 -101 0
16 -101 0
8 -101 0
-6 -7 -17 102 0
6 -102 0
7 -102 0
17 -102 0
-6 -7 -8 103 0
6 -103 0
7 -103 0
8 -103 0
-11 -16 -17 104 0
11 -104 0
16 -104 0
17 -104 0
-11 -16 -8 105 0
11 -105 0
16 -105 0
8 -105 0
-11 -7 -17 106 0
11 -106 0
7 -106 0
17 -106 0
-11 -7 -8 107 0
11 -107 0
7 -107 0
8 -107 0
-18 -19 108 0
18 -108 0
19 -108 0
20 21 -109 0
-20 109 0
-21 109 0
-24 -25 -110 0
24 110 0
25 110 0
24 25 -111 0
-24 111 0
-25 111 0
-26 -27 -112 0
26 112 0
27 112 0
26 27 -113 0
-26 113 0
-27 113 0
-28 -29 -114 0
28 114 0
29 114 0
28 29 -115 0
-28 115 0
-29 115 0
-30 -31 -116 0
30 116 0
31 116 0
30 31 -117 0
-30 117 0
-31 117 0
-2 -34 118 0
2 -118 0
34 -118 0
60 119 0
-60 -119 0
-9 -34 120 0
9 -120 0
34 -120 0
-4 -34 121 0
4 -121 0
34 -121 0
-38 -34 122 0
38 -122 0
34 -122 0
-11 -40 -123 0
11 123 0
40 123 0
4 8 124 0
-4 -124 0
-8 -124 0
-4 -8 125 0
4 -125 0
8 -125 0
-41 -42 -126 0
41 126 0
42 126 0
41 42 -127 0
-41 127 0
-42 127 0
-43 -44 -128 0
43 128 0
44 128 0
43 44 -129 0
-43 129 0
-44 129 0
-45 -46 -130 0
45 130 0
46 130 0
45 46 -131 0
-45 131 0
-46 131 0
-47 -48 -132 0
47 132 0
48 132 0
47 48 -133 0
-47 133 0
-48 133 0
-50 -24 134 0
50 -134 0
24 -134 0
-50 -25 135 0
50 -135 0
25 -135 0
-50 -26 136 0
50 -136 0
26 -136 0
-50 -27 137 0
50 -137 0
27 -137 0
-50 -28 138 0
50 -138 0
28 -138 0
-55 -56 139 0
55 -139 0
56 -139 0
-50 -29 140 0
50 -140 0
29 -140 0
-55 -57 141 0
55 -141 0
57 -141 0
-50 -30 142 0
50 -142 0
30 -142 0
-55 -59 143 0
55 -143 0
59 -143 0
91 144 0
-91 -144 0
93 145 0
-93 -145 0
92 93 -146 0
-92 146 0
-93 146 0
94 147 0
-94 -147 0
94 148 0
-94 -148 0
95 149 0
-95 -149 0
96 97 150 0
-96 -150 0
-97 -150 0
96 98 -151 0
-96 151 0
-98 151 0
96 99 -152 0
-96 152 0
-99 152 0
104 153 0
-104 -153 0
105 154 0
-105 -154 0
106 155 0
-106 -155 0
107 156 0
-107 -156 0
-22 -109 -157 0
22 157 0
109 157 0
-23 -109 158 0
23 -158 0
109 -158 0
-110 -111 -159 0
110 159 0
111 159 0
-112 -113 -160 0
112 160 0
113 160 0
-114 -115 -161 0
114 161 0
115 161 0
-116 -117 -162 0
116 162 0
117 162 0
119 163 0
-119 -163 0
124 125 164 0
-124 -164 0
-125 -164 0
-126 -127 -165 0
126 165 0
127 165 0
-128 -129 -166 0
128 166 0
129 166 0
-130 -131 -167 0
130 167 0
131 167 0
-132 -133 -168 0
132 168 0
133 168 0
101 -65 0
-101 65 0
102 -66 0
-102 66 0
103 -67 0
-103 67 0
108 -68 0
-108 68 0
92 145 -169 0
-92 169 0
-145 169 0
147 170 0
-147 -170 0
148 171 0
-148 -171 0
-150 -14 172 0
150 -172 0
14 -172 0
151 173 0
-151 -173 0
152 174 0
-152 -174 0
157 175 0
-157 -175 0
159 176 0
-159 -176 0
160 177 0
-160 -177 0
-159 -160 178 0
159 -178 0
160 -178 0
161 179 0
-161 -179 0
162 180 0
-162 -180 0
-161 -162 181 0
161 -181 0
162 -181 0
-149 -154 -182 0
149 182 0
154 182 0
165 183 0
-165 -183 0
166 184 0
-166 -184 0
-165 -166 185 0
165 -185 0
166 -185 0
167 186 0
-167 -186 0
168 187 0
-168 -187 0
-167 -168 188 0
167 -188 0
168 -188 0
-50 -163 189 0
50 -189 0
163 -189 0
144 -69 0
-144 69 0
146 -70 0
-146 70 0
153 -71 0
-153 71 0
155 -72 0
-155 72 0
156 -73 0
-156 73 0
158 -74 0
-158 74 0
172 190 0
-172 -190 0
-176 -177 191 0
176 -191 0
177 -191 0
-179 -180 192 0
179 -192 0
180 -192 0
-123 -170 -10 193 0
123 -193 0
170 -193 0
10 -193 0
-170 -4 -100 194 0
170 -194 0
4 -194 0
100 -194 0
-170 -100 -10 -195 0
170 195 0
100 195 0
10 195 0
-164 -11 -40 -170 -196 0
164 196 0
11 196 0
40 196 0
170 196 0
-170 -123 -4 -197 0
170 197 0
123 197 0
4 197 0
-183 -184 198 0
183 -198 0
184 -198 0
-186 -187 199 0
186 -199 0
187 -199 0
169 -75 0
-169 75 0
171 -76 0
-171 76 0
173 -77 0
-173 77 0
174 -78 0
-174 78 0
175 -79 0
-175 79 0
190 200 0
-190 -200 0
178 191 201 0
-178 -201 0
-191 -201 0
181 192 202 0
-181 -202 0
-192 -202 0
-196 -182 -203 0
196 203 0
182 203 0
-35 -193 204 0
35 -204 0
193 -204 0
-119 -194 205 0
119 -205 0
194 -205 0
-36 -193 206 0
36 -206 0
193 -206 0
-119 -194 207 0
119 -207 0
194 -207 0
-37 -193 208 0
37 -208 0
193 -208 0
-119 -194 209 0
119 -209 0
194 -209 0
-39 -193 210 0
39 -210 0
193 -210 0
-119 -194 211 0
119 -211 0
194 -211 0
-197 -1 -212 0
197 212 0
1 212 0
163 195 -213 0
-163 213 0
-195 213 0
163 195 -214 0
-163 214 0
-195 214 0
163 195 -215 0
-163 215 0
-195 215 0
163 195 -216 0
-163 216 0
-195 216 0
185 198 217 0
-185 -217 0
-198 -217 0
188 199 218 0
-188 -218 0
-199 -218 0
-32 -201 -219 0
32 219 0
201 219 0
32 201 -220 0
-32 220 0
-201 220 0
-202 -33 -221 0
202 221 0
33 221 0
202 33 -222 0
-202 222 0
-33 222 0
-24 -203 223 0
24 -223 0
203 -223 0
204 205 224 0
-204 -224 0
-205 -224 0
-25 -203 225 0
25 -225 0
203 -225 0
206 207 226 0
-206 -226 0
-207 -226 0
-26 -203 227 0
26 -227 0
203 -227 0
208 209 228 0
-208 -228 0
-209 -228 0
-27 -203 229 0
27 -229 0
203 -229 0
210 211 230 0
-210 -230 0
-211 -230 0
-35 -212 231 0
35 -231 0
212 -231 0
-28 -203 232 0
28 -232 0
203 -232 0
-36 -212 233 0
36 -233 0
212 -233 0
-29 -203 234 0
29 -234 0
203 -234 0
-37 -212 235 0
37 -235 0
212 -235 0
-30 -203 236 0
30 -236 0
203 -236 0
-39 -212 237 0
39 -237 0
212 -237 0
-31 -203 238 0
31 -238 0
203 -238 0
-32 -217 -239 0
32 239 0
217 239 0
32 217 -240 0
-32 240 0
-217 240 0
-218 -49 -241 0
218 241 0
49 241 0
218 49 -242 0
-218 242 0
-49 242 0
-200 -41 243 0
200 -243 0
41 -243 0
-200 -42 244 0
200 -244 0
42 -244 0
-200 -43 245 0
200 -245 0
43 -245 0
-200 -44 246 0
200 -246 0
44 -246 0
-200 -45 247 0
200 -247 0
45 -247 0
-200 -46 -248 0
200 248 0
46 248 0
-200 -47 -249 0
200 249 0
47 249 0
-200 -48 -250 0
200 250 0
48 250 0
-219 -220 -251 0
219 251 0
220 251 0
-221 -222 -252 0
221 252 0
222 252 0
118 223 253 0
-118 -253 0
-223 -253 0
120 225 254 0
-120 -254 0
-225 -254 0
121 227 255 0
-121 -255 0
-227 -255 0
122 229 256 0
-122 -256 0
-229 -256 0
231 232 257 0
-231 -257 0
-232 -257 0
233 234 258 0
-233 -258 0
-234 -258 0
235 236 259 0
-235 -259 0
-236 -259 0
237 238 260 0
-237 -260 0
-238 -260 0
-239 -240 -261 0
239 261 0
240 261 0
-241 -242 -262 0
241 262 0
242 262 0
251 263 0
-251 -263 0
252 264 0
-252 -264 0
-251 -252 265 0
251 -265 0
252 -265 0
-253 -224 -266 0
253 266 0
224 266 0
-254 -226 -267 0
254 267 0
226 267 0
-255 -228 -268 0
255 268 0
228 268 0
-256 -230 -269 0
256 269 0
230 269 0
-213 -257 -270 0
213 270 0
257 270 0
-214 -258 -271 0
214 271 0
258 271 0
-215 -259 -272 0
215 272 0
259 272 0
-216 -260 -273 0
216 273 0
260 273 0
261 274 0
-261 -274 0
262 275 0
-262 -275 0
-261 -262 276 0
261 -276 0
262 -276 0
-263 -264 277 0
263 -277 0
264 -277 0
-274 -275 278 0
274 -278 0
275 -278 0
-266 -41 -279 0
266 279 0
41 279 0
266 41 -280 0
-266 280 0
-41 280 0
-54 -266 281 0
54 -281 0
266 -281 0
-267 -42 -282 0
267 282 0
42 282 0
267 42 -283 0
-267 283 0
-42 283 0
-54 -267 284 0
54 -284 0
267 -284 0
-268 -43 -285 0
268 285 0
43 285 0
268 43 -286 0
-268 286 0
-43 286 0
-54 -268 287 0
54 -287 0
268 -287 0
-269 -44 -288 0
269 288 0
44 288 0
269 44 -289 0
-269 289 0
-44 289 0
-54 -269 290 0
54 -290 0
269 -290 0
-270 -45 -291 0
270 291 0
45 291 0
270 45 -292 0
-270 292 0
-45 292 0
54 448 0
-54 -448 0
270 449 0
-270 -449 0
-448 -61 450 0
448 -450 0
61 -450 0
-449 -450 451 0
449 -451 0
450 -451 0
-54 -62 452 0
54 -452 0
62 -452 0
-449 -452 453 0
449 -453 0
452 -453 0
-448 -63 454 0
448 -454 0
63 -454 0
-270 -454 455 0
270 -455 0
454 -455 0
-54 -64 456 0
54 -456 0
64 -456 0
-270 -456 457 0
270 -457 0
456 -457 0
451 453 -458 0
-451 458 0
-453 458 0
455 458 -459 0
-455 459 0
-458 459 0
457 459 -293 0
-457 293 0
-459 293 0
-271 -46 -294 0
271 294 0
46 294 0
271 46 -295 0
-271 295 0
-46 295 0
-54 -271 296 0
54 -296 0
271 -296 0
-272 -47 -297 0
272 297 0
47 297 0
272 47 -298 0
-272 298 0
-47 298 0
-54 -272 299 0
54 -299 0
272 -299 0
-273 -48 -300 0
273 300 0
48 300 0
273 48 -301 0
-273 301 0
-48 301 0
-54 -273 302 0
54 -302 0
273 -302 0
265 277 303 0
-265 -303 0
-277 -303 0
276 278 304 0
-276 -304 0
-278 -304 0
279 305 0
-279 -305 0
-280 -279 306 0
280 -306 0
279 -306 0
281 243 307 0
-281 -307 0
-243 -307 0
282 308 0
-282 -308 0
-283 -282 309 0
283 -309 0
282 -309 0
284 244 310 0
-284 -310 0
-244 -310 0
285 311 0
-285 -311 0
-286 -285 312 0
286 -312 0
285 -312 0
287 245 313 0
-287 -313 0
-245 -313 0
288 314 0
-288 -314 0
-289 -288 315 0
289 -315 0
288 -315 0
290 246 316 0
-290 -316 0
-246 -316 0
291 317 0
-291 -317 0
-292 -291 318 0
292 -318 0
291 -318 0
293 247 319 0
-293 -319 0
-247 -319 0
294 320 0
-294 -320 0
-295 -294 321 0
295 -321 0
294 -321 0
139 296 322 0
-139 -322 0
-296 -322 0
297 323 0
-297 -323 0
-298 -297 324 0
298 -324 0
297 -324 0
141 299 325 0
-141 -325 0
-299 -325 0
300 326 0
-300 -326 0
-301 -300 327 0
301 -327 0
300 -327 0
143 302 328 0
-143 -328 0
-302 -328 0
-301 -58 -329 0
301 329 0
58 329 0
-298 -301 -58 -330 0
298 330 0
301 330 0
58 330 0
-295 -298 -301 -58 -331 0
295 331 0
298 331 0
301 331 0
58 331 0
305 332 0
-305 -332 0
-52 -306 333 0
52 -333 0
306 -333 0
-53 -305 334 0
53 -334 0
305 -334 0
308 335 0
-308 -335 0
-52 -309 336 0
52 -336 0
309 -336 0
-53 -308 337 0
53 -337 0
308 -337 0
311 338 0
-311 -338 0
-52 -312 339 0
52 -339 0
312 -339 0
-53 -311 340 0
53 -340 0
311 -340 0
314 341 0
-314 -341 0
-52 -315 342 0
52 -342 0
315 -342 0
-53 -314 343 0
53 -343 0
314 -343 0
317 344 0
-317 -344 0
-52 -318 345 0
52 -345 0
318 -345 0
-53 -317 346 0
53 -346 0
317 -346 0
320 347 0
-320 -347 0
-52 -321 348 0
52 -348 0
321 -348 0
-53 -320 349 0
53 -349 0
320 -349 0
323 350 0
-323 -350 0
-52 -324 351 0
52 -351 0
324 -351 0
-53 -323 352 0
53 -352 0
323 -352 0
326 353 0
-326 -353 0
327 58 354 0
-327 -354 0
-58 -354 0
-327 -58 355 0
327 -355 0
58 -355 0
-52 -327 356 0
52 -356 0
327 -356 0
-53 -326 357 0
53 -357 0
326 -357 0
-298 -326 -358 0
298 358 0
326 358 0
-295 -323 -359 0
295 359 0
323 359 0
-295 -298 -326 -360 0
295 360 0
298 360 0
326 360 0
-286 -314 -361 0
286 361 0
314 361 0
-283 -311 -362 0
283 362 0
311 362 0
-283 -286 -314 -363 0
283 363 0
286 363 0
314 363 0
303 -80 0
-303 80 0
304 -81 0
-304 81 0
333 334 364 0
-333 -364 0
-334 -364 0
336 337 365 0
-336 -365 0
-337 -365 0
339 340 366 0
-339 -366 0
-340 -366 0
342 343 367 0
-342 -367 0
-343 -367 0
-347 -359 -360 -331 -368 0
347 368 0
359 368 0
360 368 0
331 368 0
345 346 369 0
-345 -369 0
-346 -369 0
-350 -358 -330 -370 0
350 370 0
358 370 0
330 370 0
348 349 371 0
-348 -371 0
-349 -371 0
-353 -329 -372 0
353 372 0
329 372 0
351 352 373 0
-351 -373 0
-352 -373 0
354 355 374 0
-354 -374 0
-355 -374 0
356 357 375 0
-356 -375 0
-357 -375 0
318 368 376 0
-318 -376 0
-368 -376 0
-318 -368 377 0
318 -377 0
368 -377 0
321 370 378 0
-321 -378 0
-370 -378 0
-321 -370 379 0
321 -379 0
370 -379 0
324 372 380 0
-324 -380 0
-372 -380 0
-324 -372 381 0
324 -381 0
372 -381 0
-51 -374 382 0
51 -382 0
374 -382 0
-292 -368 -383 0
292 383 0
368 383 0
-383 -344 -384 0
383 384 0
344 384 0
376 377 385 0
-376 -385 0
-377 -385 0
378 379 386 0
-378 -386 0
-379 -386 0
380 381 387 0
-380 -387 0
-381 -387 0
142 382 388 0
-142 -388 0
-382 -388 0
315 384 389 0
-315 -389 0
-384 -389 0
-315 -384 390 0
315 -390 0
384 -390 0
-51 -385 391 0
51 -391 0
385 -391 0
-51 -386 392 0
51 -392 0
386 -392 0
-51 -387 393 0
51 -393 0
387 -393 0
-388 -375 -328 -250 -394 0
388 394 0
375 394 0
328 394 0
250 394 0
-289 -384 -395 0
289 395 0
384 395 0
-286 -289 -384 -396 0
286 396 0
289 396 0
384 396 0
-283 -286 -289 -384 -397 0
283 397 0
286 397 0
289 397 0
384 397 0
-335 -362 -363 -397 -398 0
335 398 0
362 398 0
363 398 0
397 398 0
-338 -361 -396 -399 0
338 399 0
361 399 0
396 399 0
-341 -395 -400 0
341 400 0
395 400 0
389 390 401 0
-389 -401 0
-390 -401 0
137 391 402 0
-137 -402 0
-391 -402 0
138 392 403 0
-138 -403 0
-392 -403 0
140 393 404 0
-140 -404 0
-393 -404 0
394 405 0
-394 -405 0
306 398 406 0
-306 -406 0
-398 -406 0
-306 -398 407 0
306 -407 0
398 -407 0
309 399 408 0
-309 -408 0
-399 -408 0
-309 -399 409 0
309 -409 0
399 -409 0
312 400 410 0
-312 -410 0
-400 -410 0
-312 -400 411 0
312 -411 0
400 -411 0
-51 -401 412 0
51 -412 0
401 -412 0
-402 -369 -319 -413 0
402 413 0
369 413 0
319 413 0
-403 -371 -322 -248 -414 0
403 414 0
371 414 0
322 414 0
248 414 0
-404 -373 -325 -249 -415 0
404 415 0
373 415 0
325 415 0
249 415 0
405 416 0
-405 -416 0
-398 -280 -417 0
398 417 0
280 417 0
406 407 418 0
-406 -418 0
-407 -418 0
408 409 419 0
-408 -419 0
-409 -419 0
410 411 420 0
-410 -420 0
-411 -420 0
136 412 421 0
-136 -421 0
-412 -421 0
413 422 0
-413 -422 0
414 423 0
-414 -423 0
415 424 0
-415 -424 0
-332 -417 425 0
332 -425 0
417 -425 0
416 -82 0
-416 82 0
-51 -418 426 0
51 -426 0
418 -426 0
-51 -419 427 0
51 -427 0
419 -427 0
-51 -420 428 0
51 -428 0
420 -428 0
-421 -367 -316 -429 0
421 429 0
367 429 0
316 429 0
422 430 0
-422 -430 0
423 431 0
-423 -431 0
424 432 0
-424 -432 0
425 433 0
-425 -433 0
189 426 434 0
-189 -434 0
-426 -434 0
134 427 435 0
-134 -435 0
-427 -435 0
135 428 436 0
-135 -436 0
-428 -436 0
429 437 0
-429 -437 0
430 -83 0
-430 83 0
431 -84 0
-431 84 0
432 -85 0
-432 85 0
433 -86 0
-433 86 0
-434 -364 -307 -438 0
434 438 0
364 438 0
307 438 0
-435 -365 -310 -439 0
435 439 0
365 439 0
310 439 0
-436 -366 -313 -440 0
436 440 0
366 440 0
313 440 0
437 441 0
-437 -441 0
438 442 0
-438 -442 0
439 443 0
-439 -443 0
440 444 0
-440 -444 0
441 -87 0
-441 87 0
442 445 0
-442 -445 0
443 446 0
-443 -446 0
444 447 0
-444 -447 0
445 -88 0
-445 88 0
446 -89 0
-446 89 0
447 -90 0
-447 90 0
c The second circuit:
-460 -461 -462 -463 -550 0
460 550 0
461 550 0
462 550 0
463 550 0
-460 -464 -462 -463 -551 0
460 551 0
464 551 0
462 551 0
463 551 0
-465 -466 -467 552 0
465 -552 0
466 -552 0
467 -552 0
-460 -464 -468 553 0
460 -553 0
464 -553 0
468 -553 0
-460 -461 -468 -463 -554 0
460 554 0
461 554 0
468 554 0
463 554 0
-460 -461 -462 -469 -555 0
460 555 0
461 555 0
462 555 0
469 555 0
-470 -467 -471 -472 -556 0
470 556 0
467 556 0
471 556 0
472 556 0
-465 -471 -557 0
465 557 0
471 557 0
-470 -471 -474 -558 0
470 558 0
471 558 0
474 558 0
-465 -475 -476 559 0
465 -559 0
475 -559 0
476 -559 0
-465 -475 -467 560 0
465 -560 0
475 -560 0
467 -560 0
-465 -466 -476 561 0
465 -561 0
466 -561 0
476 -561 0
-465 -466 -467 562 0
465 -562 0
466 -562 0
467 -562 0
-470 -475 -476 563 0
470 -563 0
475 -563 0
476 -563 0
-470 -475 -467 564 0
470 -564 0
475 -564 0
467 -564 0
-470 -466 -476 565 0
470 -565 0
466 -565 0
476 -565 0
-470 -466 -467 566 0
470 -566 0
466 -566 0
467 -566 0
-477 -478 567 0
477 -567 0
478 -567 0
479 480 -568 0
-479 568 0
-480 568 0
-483 -484 -569 0
483 569 0
484 569 0
483 484 -570 0
-483 570 0
-484 570 0
-485 -486 -571 0
485 571 0
486 571 0
485 486 -572 0
-485 572 0
-486 572 0
-487 -488 -573 0
487 573 0
488 573 0
487 488 -574 0
-487 574 0
-488 574 0
-489 -490 -575 0
489 575 0
490 575 0
489 490 -576 0
-489 576 0
-490 576 0
-461 -493 577 0
461 -577 0
493 -577 0
519 578 0
-519 -578 0
-468 -493 579 0
468 -579 0
493 -579 0
-463 -493 580 0
463 -580 0
493 -580 0
-497 -493 581 0
497 -581 0
493 -581 0
-470 -499 -582 0
470 582 0
499 582 0
463 467 583 0
-463 -583 0
-467 -583 0
-463 -467 584 0
463 -584 0
467 -584 0
-500 -501 -585 0
500 585 0
501 585 0
500 501 -586 0
-500 586 0
-501 586 0
-502 -503 -587 0
502 587 0
503 587 0
502 503 -588 0
-502 588 0
-503 588 0
-504 -505 -589 0
504 589 0
505 589 0
504 505 -590 0
-504 590 0
-505 590 0
-506 -507 -591 0
506 591 0
507 591 0
506 507 -592 0
-506 592 0
-507 592 0
-509 -483 593 0
509 -593 0
483 -593 0
-509 -484 594 0
509 -594 0
484 -594 0
-509 -485 595 0
509 -595 0
485 -595 0
-509 -486 596 0
509 -596 0
486 -596 0
-509 -487 597 0
509 -597 0
487 -597 0
-514 -515 598 0
514 -598 0
515 -598 0
-509 -488 599 0
509 -599 0
488 -599 0
-514 -516 600 0
514 -600 0
516 -600 0
-509 -489 601 0
509 -601 0
489 -601 0
-514 -518 602 0
514 -602 0
518 -602 0
550 603 0
-550 -603 0
552 604 0
-552 -604 0
551 552 -605 0
-551 605 0
-552 605 0
553 606 0
-553 -606 0
553 607 0
-553 -607 0
554 608 0
-554 -608 0
555 556 609 0
-555 -609 0
-556 -609 0
555 557 -610 0
-555 610 0
-557 610 0
555 558 -611 0
-555 611 0
-558 611 0
563 612 0
-563 -612 0
564 613 0
-564 -613 0
565 614 0
-565 -614 0
566 615 0
-566 -615 0
-481 -568 -616 0
481 616 0
568 616 0
-482 -568 617 0
482 -617 0
568 -617 0
-569 -570 -618 0
569 618 0
570 618 0
-571 -572 -619 0
571 619 0
572 619 0
-573 -574 -620 0
573 620 0
574 620 0
-575 -576 -621 0
575 621 0
576 621 0
578 622 0
-578 -622 0
583 584 623 0
-583 -623 0
-584 -623 0
-585 -586 -624 0
585 624 0
586 624 0
-587 -588 -625 0
587 625 0
588 625 0
-589 -590 -626 0
589 626 0
590 626 0
-591 -592 -627 0
591 627 0
592 627 0
560 -524 0
-560 524 0
561 -525 0
-561 525 0
562 -526 0
-562 526 0
567 -527 0
-567 527 0
551 604 -628 0
-551 628 0
-604 628 0
606 629 0
-606 -629 0
607 630 0
-607 -630 0
-609 -473 631 0
609 -631 0
473 -631 0
610 632 0
-610 -632 0
611 633 0
-611 -633 0
616 634 0
-616 -634 0
618 635 0
-618 -635 0
619 636 0
-619 -636 0
-618 -619 637 0
618 -637 0
619 -637 0
620 638 0
-620 -638 0
621 639 0
-621 -639 0
-620 -621 640 0
620 -640 0
621 -640 0
-608 -613 -641 0
608 641 0
613 641 0
624 642 0
-624 -642 0
625 643 0
-625 -643 0
-624 -625 644 0
624 -644 0
625 -644 0
626 645 0
-626 -645 0
627 646 0
-627 -646 0
-626 -627 647 0
626 -647 0
627 -647 0
-509 -622 648 0
509 -648 0
622 -648 0
603 -528 0
-603 528 0
605 -529 0
-605 529 0
612 -530 0
-612 530 0
614 -531 0
-614 531 0
615 -532 0
-615 532 0
617 -533 0
-617 533 0
631 649 0
-631 -649 0
-635 -636 650 0
635 -650 0
636 -650 0
-638 -639 651 0
638 -651 0
639 -651 0
-582 -629 -469 652 0
582 -652 0
629 -652 0
469 -652 0
-629 -463 -559 653 0
629 -653 0
463 -653 0
559 -653 0
-629 -559 -469 -654 0
629 654 0
559 654 0
469 654 0
-623 -470 -499 -629 -655 0
623 655 0
470 655 0
499 655 0
629 655 0
-629 -582 -463 -656 0
629 656 0
582 656 0
463 656 0
-642 -643 657 0
642 -657 0
643 -657 0
-645 -646 658 0
645 -658 0
646 -658 0
628 -534 0
-628 534 0
630 -535 0
-630 535 0
632 -536 0
-632 536 0
633 -537 0
-633 537 0
634 -538 0
-634 538 0
649 659 0
-649 -659 0
637 650 660 0
-637 -660 0
-650 -660 0
640 651 661 0
-640 -661 0
-651 -661 0
-655 -641 -662 0
655 662 0
641 662 0
-494 -652 663 0
494 -663 0
652 -663 0
-578 -653 664 0
578 -664 0
653 -664 0
-495 -652 665 0
495 -665 0
652 -665 0
-578 -653 666 0
578 -666 0
653 -666 0
-496 -652 667 0
496 -667 0
652 -667 0
-578 -653 668 0
578 -668 0
653 -668 0
-498 -652 669 0
498 -669 0
652 -669 0
-578 -653 670 0
578 -670 0
653 -670 0
-656 -460 -671 0
656 671 0
460 671 0
622 654 -672 0
-622 672 0
-654 672 0
622 654 -673 0
-622 673 0
-654 673 0
622 654 -674 0
-622 674 0
-654 674 0
622 654 -675 0
-622 675 0
-654 675 0
644 657 676 0
-644 -676 0
-657 -676 0
647 658 677 0
-647 -677 0
-658 -677 0
-491 -660 -678 0
491 678 0
660 678 0
491 660 -679 0
-491 679 0
-660 679 0
-661 -492 -680 0
661 680 0
492 680 0
661 492 -681 0
-661 681 0
-492 681 0
-483 -662 682 0
483 -682 0
662 -682 0
663 664 683 0
-663 -683 0
-664 -683 0
-484 -662 684 0
484 -684 0
662 -684 0
665 666 685 0
-665 -685 0
-666 -685 0
-485 -662 686 0
485 -686 0
662 -686 0
667 668 687 0
-667 -687 0
-668 -687 0
-486 -662 688 0
486 -688 0
662 -688 0
669 670 689 0
-669 -689 0
-670 -689 0
-494 -671 690 0
494 -690 0
671 -690 0
-487 -662 691 0
487 -691 0
662 -691 0
-495 -671 692 0
495 -692 0
671 -692 0
-488 -662 693 0
488 -693 0
662 -693 0
-496 -671 694 0
496 -694 0
671 -694 0
-489 -662 695 0
489 -695 0
662 -695 0
-498 -671 696 0
498 -696 0
671 -696 0
-490 -662 697 0
490 -697 0
662 -697 0
-491 -676 -698 0
491 698 0
676 698 0
491 676 -699 0
-491 699 0
-676 699 0
-677 -508 -700 0
677 700 0
508 700 0
677 508 -701 0
-677 701 0
-508 701 0
-659 -500 702 0
659 -702 0
500 -702 0
-659 -501 703 0
659 -703 0
501 -703 0
-659 -502 704 0
659 -704 0
502 -704 0
-659 -503 705 0
659 -705 0
503 -705 0
-659 -504 706 0
659 -706 0
504 -706 0
-659 -505 -707 0
659 707 0
505 707 0
-659 -506 -708 0
659 708 0
506 708 0
-659 -507 -709 0
659 709 0
507 709 0
-678 -679 -710 0
678 710 0
679 710 0
-680 -681 -711 0
680 711 0
681 711 0
577 682 712 0
-577 -712 0
-682 -712 0
579 684 713 0
-579 -713 0
-684 -713 0
580 686 714 0
-580 -714 0
-686 -714 0
581 688 715 0
-581 -715 0
-688 -715 0
690 691 716 0
-690 -716 0
-691 -716 0
692 693 717 0
-692 -717 0
-693 -717 0
694 695 718 0
-694 -718 0
-695 -718 0
696 697 719 0
-696 -719 0
-697 -719 0
-698 -699 -720 0
698 720 0
699 720 0
-700 -701 -721 0
700 721 0
701 721 0
710 722 0
-710 -722 0
711 723 0
-711 -723 0
-710 -711 724 0
710 -724 0
711 -724 0
-712 -683 -725 0
712 725 0
683 725 0
-713 -685 -726 0
713 726 0
685 726 0
-714 -687 -727 0
714 727 0
687 727 0
-715 -689 -728 0
715 728 0
689 728 0
-672 -716 -729 0
672 729 0
716 729 0
-673 -717 -730 0
673 730 0
717 730 0
-674 -718 -731 0
674 731 0
718 731 0
-675 -719 -732 0
675 732 0
719 732 0
720 733 0
-720 -733 0
721 734 0
-721 -734 0
-720 -721 735 0
720 -735 0
721 -735 0
-722 -723 736 0
722 -736 0
723 -736 0
-733 -734 737 0
733 -737 0
734 -737 0
-725 -500 -738 0
725 738 0
500 738 0
725 500 -739 0
-725 739 0
-500 739 0
-513 -725 740 0
513 -740 0
725 -740 0
-726 -501 -741 0
726 741 0
501 741 0
726 501 -742 0
-726 742 0
-501 742 0
-513 -726 743 0
513 -743 0
726 -743 0
-727 -502 -744 0
727 744 0
502 744 0
727 502 -745 0
-727 745 0
-502 745 0
-513 -727 746 0
513 -746 0
727 -746 0
-728 -503 -747 0
728 747 0
503 747 0
728 503 -748 0
-728 748 0
-503 748 0
-513 -728 749 0
513 -749 0
728 -749 0
-729 -504 -750 0
729 750 0
504 750 0
729 504 -751 0
-729 751 0
-504 751 0
513 907 0
-513 -907 0
729 908 0
-729 -908 0
-907 -520 909 0
907 -909 0
520 -909 0
-908 -909 910 0
908 -910 0
909 -910 0
-513 -521 911 0
513 -911 0
521 -911 0
-908 -911 912 0
908 -912 0
911 -912 0
-907 -522 913 0
907 -913 0
522 -913 0
-729 -913 914 0
729 -914 0
913 -914 0
-513 -523 915 0
513 -915 0
523 -915 0
-729 -915 916 0
729 -916 0
915 -916 0
910 912 -917 0
-910 917 0
-912 917 0
914 917 -918 0
-914 918 0
-917 918 0
916 918 -752 0
-916 752 0
-918 752 0
-730 -505 -753 0
730 753 0
505 753 0
730 505 -754 0
-730 754 0
-505 754 0
-513 -730 755 0
513 -755 0
730 -755 0
-731 -506 -756 0
731 756 0
506 756 0
731 506 -757 0
-731 757 0
-506 757 0
-513 -731 758 0
513 -758 0
731 -758 0
-732 -507 -759 0
732 759 0
507 759 0
732 507 -760 0
-732 760 0
-507 760 0
-513 -732 761 0
513 -761 0
732 -761 0
724 736 762 0
-724 -762 0
-736 -762 0
735 737 763 0
-735 -763 0
-737 -763 0
738 764 0
-738 -764 0
-739 -738 765 0
739 -765 0
738 -765 0
740 702 766 0
-740 -766 0
-702 -766 0
741 767 0
-741 -767 0
-742 -741 768 0
742 -768 0
741 -768 0
743 703 769 0
-743 -769 0
-703 -769 0
744 770 0
-744 -770 0
-745 -744 771 0
745 -771 0
744 -771 0
746 704 772 0
-746 -772 0
-704 -772 0
747 773 0
-747 -773 0
-748 -747 774 0
748 -774 0
747 -774 0
749 705 775 0
-749 -775 0
-705 -775 0
750 776 0
-750 -776 0
-751 -750 777 0
751 -777 0
750 -777 0
752 706 778 0
-752 -778 0
-706 -778 0
753 779 0
-753 -779 0
-754 -753 780 0
754 -780 0
753 -780 0
598 755 781 0
-598 -781 0
-755 -781 0
756 782 0
-756 -782 0
-757 -756 783 0
757 -783 0
756 -783 0
600 758 784 0
-600 -784 0
-758 -784 0
759 785 0
-759 -785 0
-760 -759 786 0
760 -786 0
759 -786 0
602 761 787 0
-602 -787 0
-761 -787 0
-760 -517 -788 0
760 788 0
517 788 0
-757 -760 -517 -789 0
757 789 0
760 789 0
517 789 0
-754 -757 -760 -517 -790 0
754 790 0
757 790 0
760 790 0
517 790 0
764 791 0
-764 -791 0
-511 -765 792 0
511 -792 0
765 -792 0
-512 -764 793 0
512 -793 0
764 -793 0
767 794 0
-767 -794 0
-511 -768 795 0
511 -795 0
768 -795 0
-512 -767 796 0
512 -796 0
767 -796 0
770 797 0
-770 -797 0
-511 -771 798 0
511 -798 0
771 -798 0
-512 -770 799 0
512 -799 0
770 -799 0
773 800 0
-773 -800 0
-511 -774 801 0
511 -801 0
774 -801 0
-512 -773 802 0
512 -802 0
773 -802 0
776 803 0
-776 -803 0
-511 -777 804 0
511 -804 0
777 -804 0
-512 -776 805 0
512 -805 0
776 -805 0
779 806 0
-779 -806 0
-511 -780 807 0
511 -807 0
780 -807 0
-512 -779 808 0
512 -808 0
779 -808 0
782 809 0
-782 -809 0
-511 -783 810 0
511 -810 0
783 -810 0
-512 -782 811 0
512 -811 0
782 -811 0
785 812 0
-785 -812 0
786 517 813 0
-786 -813 0
-517 -813 0
-786 -517 814 0
786 -814 0
517 -814 0
-511 -786 815 0
511 -815 0
786 -815 0
-512 -785 816 0
512 -816 0
785 -816 0
-757 -785 -817 0
757 817 0
785 817 0
-754 -782 -818 0
754 818 0
782 818 0
-754 -757 -785 -819 0
754 819 0
757 819 0
785 819 0
-745 -773 -820 0
745 820 0
773 820 0
-742 -770 -821 0
742 821 0
770 821 0
-742 -745 -773 -822 0
742 822 0
745 822 0
773 822 0
762 -539 0
-762 539 0
763 -540 0
-763 540 0
792 793 823 0
-792 -823 0
-793 -823 0
795 796 824 0
-795 -824 0
-796 -824 0
798 799 825 0
-798 -825 0
-799 -825 0
801 802 826 0
-801 -826 0
-802 -826 0
-806 -818 -819 -790 -827 0
806 827 0
818 827 0
819 827 0
790 827 0
804 805 828 0
-804 -828 0
-805 -828 0
-809 -817 -789 -829 0
809 829 0
817 829 0
789 829 0
807 808 830 0
-807 -830 0
-808 -830 0
-812 -788 -831 0
812 831 0
788 831 0
810 811 832 0
-810 -832 0
-811 -832 0
813 814 833 0
-813 -833 0
-814 -833 0
815 816 834 0
-815 -834 0
-816 -834 0
777 827 835 0
-777 -835 0
-827 -835 0
-777 -827 836 0
777 -836 0
827 -836 0
780 829 837 0
-780 -837 0
-829 -837 0
-780 -829 838 0
780 -838 0
829 -838 0
783 831 839 0
-783 -839 0
-831 -839 0
-783 -831 840 0
783 -840 0
831 -840 0
-510 -833 841 0
510 -841 0
833 -841 0
-751 -827 -842 0
751 842 0
827 842 0
-842 -803 -843 0
842 843 0
803 843 0
835 836 844 0
-835 -844 0
-836 -844 0
837 838 845 0
-837 -845 0
-838 -845 0
839 840 846 0
-839 -846 0
-840 -846 0
601 841 847 0
-601 -847 0
-841 -847 0
774 843 848 0
-774 -848 0
-843 -848 0
-774 -843 849 0
774 -849 0
843 -849 0
-510 -844 850 0
510 -850 0
844 -850 0
-510 -845 851 0
510 -851 0
845 -851 0
-510 -846 852 0
510 -852 0
846 -852 0
-847 -834 -787 -709 -853 0
847 853 0
834 853 0
787 853 0
709 853 0
-748 -843 -854 0
748 854 0
843 854 0
-745 -748 -843 -855 0
745 855 0
748 855 0
843 855 0
-742 -745 -748 -843 -856 0
742 856 0
745 856 0
748 856 0
843 856 0
-794 -821 -822 -856 -857 0
794 857 0
821 857 0
822 857 0
856 857 0
-797 -820 -855 -858 0
797 858 0
820 858 0
855 858 0
-800 -854 -859 0
800 859 0
854 859 0
848 849 860 0
-848 -860 0
-849 -860 0
596 850 861 0
-596 -861 0
-850 -861 0
597 851 862 0
-597 -862 0
-851 -862 0
599 852 863 0
-599 -863 0
-852 -863 0
853 864 0
-853 -864 0
765 857 865 0
-765 -865 0
-857 -865 0
-765 -857 866 0
765 -866 0
857 -866 0
768 858 867 0
-768 -867 0
-858 -867 0
-768 -858 868 0
768 -868 0
858 -868 0
771 859 869 0
-771 -869 0
-859 -869 0
-771 -859 870 0
771 -870 0
859 -870 0
-510 -860 871 0
510 -871 0
860 -871 0
-861 -828 -778 -872 0
861 872 0
828 872 0
778 872 0
-862 -830 -781 -707 -873 0
862 873 0
830 873 0
781 873 0
707 873 0
-863 -832 -784 -708 -874 0
863 874 0
832 874 0
784 874 0
708 874 0
864 875 0
-864 -875 0
-857 -739 -876 0
857 876 0
739 876 0
865 866 877 0
-865 -877 0
-866 -877 0
867 868 878 0
-867 -878 0
-868 -878 0
869 870 879 0
-869 -879 0
-870 -879 0
595 871 880 0
-595 -880 0
-871 -880 0
872 881 0
-872 -881 0
873 882 0
-873 -882 0
874 883 0
-874 -883 0
-791 -876 884 0
791 -884 0
876 -884 0
875 -541 0
-875 541 0
-510 -877 885 0
510 -885 0
877 -885 0
-510 -878 886 0
510 -886 0
878 -886 0
-510 -879 887 0
510 -887 0
879 -887 0
-880 -826 -775 -888 0
880 888 0
826 888 0
775 888 0
881 889 0
-881 -889 0
882 890 0
-882 -890 0
883 891 0
-883 -891 0
884 892 0
-884 -892 0
648 885 893 0
-648 -893 0
-885 -893 0
593 886 894 0
-593 -894 0
-886 -894 0
594 887 895 0
-594 -895 0
-887 -895 0
888 896 0
-888 -896 0
889 -542 0
-889 542 0
890 -543 0
-890 543 0
891 -544 0
-891 544 0
892 -545 0
-892 545 0
-893 -823 -766 -897 0
893 897 0
823 897 0
766 897 0
-894 -824 -769 -898 0
894 898 0
824 898 0
769 898 0
-895 -825 -772 -899 0
895 899 0
825 899 0
772 899 0
896 900 0
-896 -900 0
897 901 0
-897 -901 0
898 902 0
-898 -902 0
899 903 0
-899 -903 0
900 -546 0
-900 546 0
901 904 0
-901 -904 0
902 905 0
-902 -905 0
903 906 0
-903 -906 0
904 -547 0
-904 547 0
905 -548 0
-905 548 0
906 -549 0
-906 549 0
c Force PIs of 2 ckts to be the same:
1 -460 0
-1 460 0
2 -461 0
-2 461 0
3 -462 0
-3 462 0
4 -463 0
-4 463 0
5 -464 0
-5 464 0
6 -465 0
-6 465 0
7 -466 0
-7 466 0
8 -467 0
-8 467 0
9 -468 0
-9 468 0
10 -469 0
-10 469 0
11 -470 0
-11 470 0
12 -471 0
-12 471 0
13 -472 0
-13 472 0
14 -473 0
-14 473 0
15 -474 0
-15 474 0
16 -475 0
-16 475 0
17 -476 0
-17 476 0
18 -477 0
-18 477 0
19 -478 0
-19 478 0
20 -479 0
-20 479 0
21 -480 0
-21 480 0
22 -481 0
-22 481 0
23 -482 0
-23 482 0
24 -483 0
-24 483 0
25 -484 0
-25 484 0
26 -485 0
-26 485 0
27 -486 0
-27 486 0
28 -487 0
-28 487 0
29 -488 0
-29 488 0
30 -489 0
-30 489 0
31 -490 0
-31 490 0
32 -491 0
-32 491 0
33 -492 0
-33 492 0
34 -493 0
-34 493 0
35 -494 0
-35 494 0
36 -495 0
-36 495 0
37 -496 0
-37 496 0
38 -497 0
-38 497 0
39 -498 0
-39 498 0
40 -499 0
-40 499 0
41 -500 0
-41 500 0
42 -501 0
-42 501 0
43 -502 0
-43 502 0
44 -503 0
-44 503 0
45 -504 0
-45 504 0
46 -505 0
-46 505 0
47 -506 0
-47 506 0
48 -507 0
-48 507 0
49 -508 0
-49 508 0
50 -509 0
-50 509 0
51 -510 0
-51 510 0
52 -511 0
-52 511 0
53 -512 0
-53 512 0
54 -513 0
-54 513 0
55 -514 0
-55 514 0
56 -515 0
-56 515 0
57 -516 0
-57 516 0
58 -517 0
-58 517 0
59 -518 0
-59 518 0
60 -519 0
-60 519 0
c XOR outputs of 2 ckts:
-65 -524 -919 0
65 524 -919 0
65 -524 919 0
-65 524 919 0
-66 -525 -920 0
66 525 -920 0
66 -525 920 0
-66 525 920 0
-67 -526 -921 0
67 526 -921 0
67 -526 921 0
-67 526 921 0
-68 -527 -922 0
68 527 -922 0
68 -527 922 0
-68 527 922 0
-69 -528 -923 0
69 528 -923 0
69 -528 923 0
-69 528 923 0
-70 -529 -924 0
70 529 -924 0
70 -529 924 0
-70 529 924 0
-71 -530 -925 0
71 530 -925 0
71 -530 925 0
-71 530 925 0
-72 -531 -926 0
72 531 -926 0
72 -531 926 0
-72 531 926 0
-73 -532 -927 0
73 532 -927 0
73 -532 927 0
-73 532 927 0
-74 -533 -928 0
74 533 -928 0
74 -533 928 0
-74 533 928 0
-75 -534 -929 0
75 534 -929 0
75 -534 929 0
-75 534 929 0
-76 -535 -930 0
76 535 -930 0
76 -535 930 0
-76 535 930 0
-77 -536 -931 0
77 536 -931 0
77 -536 931 0
-77 536 931 0
-78 -537 -932 0
78 537 -932 0
78 -537 932 0
-78 537 932 0
-79 -538 -933 0
79 538 -933 0
79 -538 933 0
-79 538 933 0
-80 -539 -934 0
80 539 -934 0
80 -539 934 0
-80 539 934 0
-81 -540 -935 0
81 540 -935 0
81 -540 935 0
-81 540 935 0
-82 -541 -936 0
82 541 -936 0
82 -541 936 0
-82 541 936 0
-83 -542 -937 0
83 542 -937 0
83 -542 937 0
-83 542 937 0
-84 -543 -938 0
84 543 -938 0
84 -543 938 0
-84 543 938 0
-85 -544 -939 0
85 544 -939 0
85 -544 939 0
-85 544 939 0
-86 -545 -940 0
86 545 -940 0
86 -545 940 0
-86 545 940 0
-87 -546 -941 0
87 546 -941 0
87 -546 941 0
-87 546 941 0
-88 -547 -942 0
88 547 -942 0
88 -547 942 0
-88 547 942 0
-89 -548 -943 0
89 548 -943 0
89 -548 943 0
-89 548 943 0
-90 -549 -944 0
90 549 -944 0
90 -549 944 0
-90 549 944 0
c The last OR gate of the miter:
919 920 921 922 923 924 925 926 927 928 929 930 931 932 933 934 935 936 937 938 939 940 941 942 943 944 -945 0
-919 945 0
-920 945 0
-921 945 0
-922 945 0
-923 945 0
-924 945 0
-925 945 0
-926 945 0
-927 945 0
-928 945 0
-929 945 0
-930 945 0
-931 945 0
-932 945 0
-933 945 0
-934 945 0
-935 945 0
-936 945 0
-937 945 0
-938 945 0
-939 945 0
-940 945 0
-941 945 0
-942 945 0
-943 945 0
-944 945 0
945 0
